p edge 900 2160
e 1 14
e 1 232
e 1 886
e 2 54
e 2 405
e 2 406
e 3 54
e 3 431
e 3 579
e 4 14
e 4 496
e 4 886
e 5 185
e 5 531
e 5 800
e 6 42
e 6 224
e 6 231
e 6 276
e 6 327
e 6 398
e 6 462
e 6 494
e 6 565
e 6 761
e 6 796
e 6 891
e 7 196
e 7 433
e 7 509
e 8 99
e 8 191
e 8 260
e 8 301
e 8 310
e 8 435
e 8 469
e 8 505
e 8 694
e 8 734
e 8 797
e 8 851
e 9 12
e 9 241
e 9 340
e 9 389
e 9 422
e 9 527
e 9 563
e 9 613
e 9 722
e 9 747
e 9 824
e 9 881
e 10 266
e 10 272
e 10 294
e 10 295
e 10 313
e 10 318
e 10 341
e 10 352
e 10 641
e 10 667
e 10 719
e 10 899
e 11 438
e 11 647
e 11 861
e 12 75
e 12 542
e 13 131
e 13 348
e 13 758
e 14 118
e 14 154
e 14 210
e 14 226
e 14 260
e 14 365
e 14 379
e 14 723
e 14 866
e 14 887
e 15 303
e 15 507
e 15 560
e 16 93
e 16 160
e 16 199
e 16 300
e 16 305
e 16 392
e 16 454
e 16 568
e 16 607
e 16 637
e 16 867
e 16 894
e 17 823
e 17 858
e 17 886
e 18 19
e 18 84
e 18 780
e 19 32
e 19 129
e 19 172
e 19 243
e 19 269
e 19 304
e 19 481
e 19 614
e 19 658
e 19 671
e 19 846
e 20 75
e 20 492
e 20 740
e 21 650
e 21 779
e 21 798
e 22 230
e 22 257
e 22 288
e 22 374
e 22 421
e 22 465
e 22 561
e 22 564
e 22 583
e 22 696
e 22 707
e 22 757
e 23 161
e 23 321
e 23 450
e 24 25
e 24 287
e 24 470
e 25 32
e 25 171
e 25 262
e 25 313
e 25 441
e 25 453
e 25 570
e 25 681
e 25 687
e 25 752
e 25 805
e 26 232
e 26 670
e 26 801
e 27 470
e 27 547
e 27 750
e 28 355
e 28 579
e 28 690
e 29 65
e 29 241
e 29 248
e 29 253
e 29 292
e 29 364
e 29 376
e 29 462
e 29 510
e 29 596
e 29 685
e 29 848
e 30 430
e 30 476
e 30 647
e 31 83
e 31 161
e 31 275
e 32 606
e 33 89
e 33 371
e 33 455
e 34 287
e 34 413
e 34 809
e 35 92
e 35 97
e 35 100
e 35 208
e 35 246
e 35 294
e 35 453
e 35 463
e 35 483
e 35 498
e 35 594
e 35 840
e 36 158
e 36 250
e 36 650
e 37 381
e 37 551
e 37 895
e 38 358
e 38 450
e 38 670
e 39 164
e 39 229
e 39 528
e 40 68
e 40 358
e 40 470
e 41 371
e 41 531
e 41 560
e 42 589
e 42 779
e 43 265
e 43 621
e 43 843
e 44 158
e 44 478
e 44 528
e 45 737
e 45 778
e 45 886
e 46 84
e 46 238
e 46 557
e 47 359
e 47 551
e 47 606
e 48 73
e 48 170
e 48 438
e 49 235
e 49 249
e 49 328
e 50 186
e 50 363
e 50 426
e 51 54
e 51 798
e 51 871
e 52 232
e 52 664
e 52 778
e 53 186
e 53 355
e 53 562
e 54 63
e 54 198
e 54 215
e 54 226
e 54 264
e 54 286
e 54 407
e 54 631
e 54 642
e 55 59
e 55 164
e 55 416
e 56 62
e 56 114
e 56 388
e 57 119
e 57 284
e 57 739
e 58 86
e 58 136
e 58 148
e 58 213
e 58 301
e 58 513
e 58 537
e 58 580
e 58 616
e 58 640
e 58 738
e 58 878
e 59 88
e 59 178
e 59 240
e 59 563
e 59 564
e 59 597
e 59 615
e 59 656
e 59 669
e 59 762
e 59 813
e 60 87
e 60 212
e 60 405
e 61 89
e 61 106
e 61 284
e 62 141
e 62 280
e 62 306
e 62 310
e 62 354
e 62 548
e 62 638
e 62 711
e 62 802
e 62 806
e 62 893
e 63 348
e 63 823
e 64 156
e 64 303
e 64 862
e 65 249
e 65 577
e 66 107
e 66 430
e 66 862
e 67 89
e 67 131
e 67 525
e 68 124
e 68 256
e 68 318
e 68 401
e 68 437
e 68 640
e 68 659
e 68 672
e 68 791
e 68 889
e 68 898
e 69 715
e 69 739
e 69 852
e 70 650
e 70 801
e 70 849
e 71 235
e 71 662
e 71 665
e 72 263
e 72 275
e 72 678
e 73 133
e 73 142
e 73 217
e 73 297
e 73 410
e 73 504
e 73 632
e 73 682
e 73 707
e 73 753
e 73 856
e 74 556
e 74 633
e 74 779
e 75 116
e 75 384
e 75 447
e 75 518
e 75 520
e 75 536
e 75 699
e 75 720
e 75 796
e 75 815
e 76 686
e 76 690
e 76 800
e 77 450
e 77 562
e 77 728
e 78 235
e 78 577
e 78 809
e 79 433
e 79 621
e 79 686
e 80 356
e 80 359
e 80 433
e 81 371
e 81 557
e 81 737
e 82 725
e 82 779
e 82 814
e 83 194
e 83 202
e 83 323
e 83 394
e 83 428
e 83 437
e 83 486
e 83 487
e 83 513
e 83 712
e 83 878
e 84 179
e 84 289
e 84 390
e 84 449
e 84 464
e 84 534
e 84 658
e 84 714
e 84 727
e 84 863
e 85 196
e 85 606
e 85 800
e 86 321
e 86 643
e 87 163
e 87 189
e 87 225
e 87 468
e 87 488
e 87 554
e 87 629
e 87 789
e 87 835
e 87 855
e 87 866
e 88 758
e 88 793
e 89 230
e 89 425
e 89 440
e 89 458
e 89 549
e 89 663
e 89 744
e 89 749
e 89 813
e 90 507
e 90 849
e 90 862
e 91 275
e 91 562
e 91 665
e 92 363
e 92 690
e 93 664
e 93 732
e 94 164
e 94 192
e 94 895
e 95 114
e 95 126
e 95 328
e 96 119
e 96 239
e 96 381
e 97 618
e 97 849
e 98 185
e 98 238
e 98 579
e 99 668
e 99 677
e 100 155
e 100 470
e 101 368
e 101 400
e 101 825
e 102 348
e 102 807
e 102 825
e 103 183
e 103 336
e 103 378
e 103 451
e 103 490
e 103 569
e 103 616
e 103 646
e 103 738
e 103 759
e 103 797
e 103 883
e 104 560
e 104 647
e 104 852
e 105 556
e 105 633
e 105 788
e 106 174
e 106 197
e 106 302
e 106 334
e 106 380
e 106 390
e 106 393
e 106 512
e 106 575
e 106 657
e 106 891
e 107 111
e 107 360
e 107 409
e 107 429
e 107 583
e 107 635
e 107 716
e 107 746
e 107 751
e 107 765
e 107 870
e 108 170
e 108 284
e 108 647
e 109 156
e 109 476
e 109 849
e 110 235
e 110 740
e 110 803
e 111 356
e 111 416
e 112 238
e 112 381
e 112 677
e 113 176
e 113 249
e 113 382
e 114 132
e 114 300
e 114 315
e 114 506
e 114 572
e 114 581
e 114 658
e 114 785
e 114 836
e 114 854
e 115 371
e 115 686
e 115 862
e 116 158
e 116 715
e 117 164
e 117 290
e 117 388
e 118 484
e 118 849
e 119 177
e 119 221
e 119 231
e 119 347
e 119 475
e 119 553
e 119 674
e 119 708
e 119 727
e 119 744
e 120 356
e 120 690
e 120 780
e 121 265
e 121 359
e 121 531
e 122 361
e 122 414
e 122 456
e 122 523
e 122 601
e 122 691
e 122 733
e 122 781
e 122 792
e 122 811
e 122 854
e 122 857
e 123 265
e 123 547
e 123 686
e 124 263
e 124 725
e 125 589
e 125 679
e 125 852
e 126 175
e 126 319
e 126 398
e 126 424
e 126 520
e 126 573
e 126 656
e 126 685
e 126 764
e 126 822
e 126 893
e 127 664
e 127 737
e 127 823
e 128 156
e 128 542
e 128 560
e 129 265
e 129 359
e 130 382
e 130 556
e 130 758
e 131 209
e 131 255
e 131 340
e 131 480
e 131 489
e 131 545
e 131 561
e 131 571
e 131 573
e 131 574
e 132 381
e 132 843
e 133 525
e 133 692
e 134 359
e 134 678
e 134 750
e 135 144
e 135 169
e 135 175
e 135 251
e 135 307
e 135 315
e 135 408
e 135 435
e 135 626
e 135 782
e 135 847
e 135 873
e 136 222
e 136 801
e 137 415
e 137 715
e 137 788
e 138 491
e 138 758
e 138 895
e 139 196
e 139 371
e 139 627
e 140 426
e 140 690
e 140 803
e 141 249
e 141 461
e 142 158
e 142 514
e 143 406
e 143 432
e 143 858
e 144 388
e 144 895
e 145 478
e 145 617
e 145 643
e 146 668
e 146 801
e 146 871
e 147 263
e 147 507
e 147 514
e 148 662
e 148 837
e 149 314
e 149 328
e 149 622
e 150 185
e 150 212
e 150 678
e 151 222
e 151 359
e 151 470
e 152 531
e 152 606
e 152 621
e 153 250
e 153 562
e 153 668
e 154 664
e 154 858
e 155 181
e 155 188
e 155 220
e 155 223
e 155 272
e 155 344
e 155 592
e 155 774
e 155 846
e 155 879
e 155 888
e 156 257
e 156 309
e 156 501
e 156 611
e 156 613
e 156 653
e 156 726
e 156 838
e 156 884
e 157 358
e 157 514
e 157 807
e 158 202
e 158 203
e 158 292
e 158 423
e 158 582
e 158 696
e 158 751
e 158 880
e 159 303
e 159 650
e 159 662
e 160 606
e 160 780
e 161 256
e 161 320
e 161 428
e 161 490
e 161 620
e 161 694
e 161 759
e 161 841
e 161 850
e 161 900
e 162 406
e 162 737
e 162 798
e 163 461
e 163 814
e 164 316
e 164 330
e 164 403
e 164 480
e 164 515
e 164 572
e 164 586
e 164 764
e 165 484
e 165 496
e 165 823
e 166 192
e 166 547
e 166 705
e 167 216
e 167 484
e 167 858
e 168 627
e 168 704
e 168 825
e 169 627
e 169 837
e 170 178
e 170 215
e 170 255
e 170 424
e 170 482
e 170 489
e 170 597
e 170 629
e 170 746
e 170 824
e 171 192
e 171 359
e 172 381
e 172 509
e 173 450
e 173 579
e 173 668
e 174 381
e 174 704
e 175 882
e 176 179
e 176 259
e 176 324
e 176 446
e 176 448
e 176 565
e 176 634
e 176 652
e 176 709
e 176 749
e 176 777
e 177 633
e 177 740
e 178 683
e 179 239
e 180 214
e 180 538
e 180 737
e 181 359
e 181 382
e 182 252
e 182 293
e 182 319
e 182 545
e 182 581
e 182 615
e 182 680
e 182 684
e 182 735
e 182 769
e 182 783
e 182 799
e 183 461
e 183 728
e 184 268
e 184 406
e 184 562
e 185 208
e 185 367
e 185 508
e 185 544
e 185 619
e 185 667
e 185 689
e 185 790
e 185 853
e 186 352
e 186 372
e 186 386
e 186 399
e 186 434
e 186 498
e 186 695
e 186 703
e 186 787
e 186 868
e 187 239
e 187 355
e 187 514
e 188 715
e 188 800
e 189 235
e 189 798
e 190 381
e 190 472
e 190 557
e 191 557
e 191 728
e 192 259
e 192 293
e 192 344
e 192 347
e 192 473
e 192 506
e 192 515
e 192 575
e 192 680
e 193 358
e 193 426
e 193 849
e 194 351
e 194 650
e 195 725
e 195 750
e 195 798
e 196 296
e 196 412
e 196 436
e 196 467
e 196 516
e 196 721
e 196 748
e 196 756
e 196 836
e 197 491
e 197 643
e 198 368
e 198 798
e 199 238
e 199 882
e 200 268
e 200 416
e 200 823
e 201 400
e 201 416
e 201 758
e 202 670
e 203 740
e 203 852
e 204 388
e 204 528
e 204 758
e 205 249
e 205 321
e 205 427
e 206 239
e 206 627
e 206 683
e 207 321
e 207 579
e 207 728
e 208 803
e 209 514
e 209 739
e 210 809
e 210 837
e 211 496
e 211 538
e 211 829
e 212 227
e 212 335
e 212 352
e 212 373
e 212 479
e 212 539
e 212 598
e 212 642
e 212 771
e 212 834
e 213 250
e 213 275
e 214 337
e 214 436
e 214 440
e 214 456
e 214 605
e 214 639
e 214 655
e 214 741
e 214 786
e 214 844
e 214 867
e 215 814
e 216 251
e 216 310
e 216 370
e 216 436
e 216 522
e 216 523
e 216 568
e 216 608
e 216 839
e 216 864
e 216 881
e 217 416
e 217 531
e 218 321
e 218 351
e 218 670
e 219 617
e 219 692
e 219 852
e 220 551
e 220 606
e 221 442
e 221 818
e 222 247
e 222 266
e 222 298
e 222 333
e 222 378
e 222 460
e 222 494
e 222 730
e 222 770
e 222 841
e 223 433
e 223 843
e 224 589
e 224 788
e 225 406
e 225 579
e 226 416
e 227 268
e 227 579
e 228 400
e 228 525
e 228 739
e 229 315
e 229 338
e 229 343
e 229 376
e 229 500
e 229 574
e 229 597
e 229 638
e 229 783
e 229 796
e 229 872
e 230 400
e 231 617
e 232 254
e 232 411
e 232 594
e 232 646
e 232 653
e 232 745
e 232 819
e 232 859
e 232 897
e 233 359
e 233 491
e 233 705
e 234 328
e 234 542
e 234 677
e 235 261
e 235 273
e 235 286
e 235 307
e 235 569
e 235 701
e 235 806
e 236 382
e 236 621
e 236 705
e 237 525
e 237 618
e 237 807
e 238 374
e 238 377
e 238 521
e 238 529
e 238 552
e 238 733
e 238 787
e 238 836
e 239 322
e 239 350
e 239 374
e 239 389
e 239 539
e 239 657
e 239 810
e 239 864
e 240 825
e 240 861
e 241 455
e 242 589
e 242 679
e 242 750
e 243 381
e 243 882
e 244 371
e 244 496
e 244 677
e 245 290
e 245 415
e 245 430
e 246 589
e 246 803
e 247 556
e 247 679
e 248 351
e 248 715
e 249 428
e 249 575
e 249 580
e 249 625
e 249 626
e 249 708
e 249 720
e 250 256
e 250 517
e 250 580
e 250 587
e 250 698
e 250 702
e 250 729
e 250 816
e 250 850
e 251 314
e 252 382
e 252 589
e 253 492
e 253 617
e 254 263
e 254 426
e 255 825
e 257 358
e 258 268
e 258 405
e 258 431
e 259 643
e 260 363
e 261 728
e 261 801
e 262 382
e 262 547
e 263 288
e 263 318
e 263 345
e 263 463
e 263 471
e 263 546
e 263 760
e 263 838
e 264 778
e 264 793
e 265 392
e 265 467
e 265 493
e 265 543
e 265 681
e 265 691
e 265 776
e 265 846
e 266 547
e 267 427
e 267 779
e 267 801
e 268 285
e 268 482
e 268 502
e 268 503
e 268 645
e 268 701
e 268 723
e 268 742
e 269 433
e 269 547
e 270 662
e 270 728
e 270 871
e 271 433
e 271 551
e 271 621
e 272 287
e 273 363
e 273 617
e 274 363
e 274 740
e 274 871
e 275 279
e 275 383
e 275 387
e 275 584
e 275 602
e 275 641
e 275 760
e 275 768
e 276 413
e 276 430
e 277 351
e 277 577
e 277 852
e 278 416
e 278 507
e 278 825
e 279 470
e 279 618
e 280 308
e 280 677
e 281 413
e 281 633
e 281 750
e 282 455
e 282 507
e 282 862
e 283 472
e 283 514
e 283 818
e 284 335
e 284 350
e 284 459
e 284 632
e 284 635
e 284 721
e 284 777
e 284 857
e 284 894
e 285 461
e 285 798
e 286 814
e 287 329
e 287 345
e 287 399
e 287 419
e 287 576
e 287 619
e 287 819
e 287 833
e 287 865
e 288 807
e 289 509
e 289 551
e 290 292
e 290 425
e 290 536
e 290 550
e 290 592
e 290 752
e 290 775
e 290 783
e 290 822
e 290 885
e 291 382
e 291 758
e 291 882
e 293 882
e 294 705
e 295 359
e 295 779
e 296 472
e 296 895
e 297 852
e 297 862
e 298 650
e 298 814
e 299 484
e 299 496
e 299 622
e 300 472
e 301 801
e 302 617
e 302 679
e 303 357
e 303 365
e 303 463
e 303 511
e 303 603
e 303 832
e 303 860
e 303 865
e 303 883
e 304 606
e 304 621
e 305 371
e 305 622
e 306 542
e 306 557
e 307 492
e 308 447
e 308 501
e 308 549
e 308 596
e 308 700
e 308 747
e 308 830
e 308 844
e 308 845
e 308 873
e 308 890
e 309 793
e 309 825
e 311 442
e 311 843
e 311 882
e 312 476
e 312 507
e 312 542
e 313 426
e 314 320
e 314 369
e 314 391
e 314 532
e 314 548
e 314 636
e 314 738
e 314 784
e 314 794
e 314 887
e 316 382
e 316 413
e 317 415
e 317 528
e 317 852
e 319 528
e 320 801
e 321 353
e 321 387
e 321 397
e 321 423
e 321 640
e 321 648
e 321 900
e 322 406
e 322 438
e 323 562
e 323 728
e 324 491
e 324 492
e 325 363
e 325 778
e 325 837
e 326 431
e 326 432
e 326 737
e 327 556
e 327 750
e 328 469
e 328 522
e 328 731
e 328 743
e 328 754
e 328 772
e 328 872
e 328 890
e 329 363
e 329 589
e 330 491
e 330 556
e 331 371
e 331 538
e 331 858
e 332 356
e 332 647
e 332 793
e 333 432
e 333 725
e 334 415
e 334 438
e 335 704
e 336 665
e 336 871
e 337 415
e 337 455
e 338 400
e 338 861
e 339 400
e 339 683
e 339 861
e 340 861
e 341 406
e 341 690
e 342 431
e 342 496
e 342 798
e 343 478
e 343 679
e 344 621
e 345 849
e 346 478
e 346 492
e 346 577
e 347 492
e 348 360
e 348 422
e 348 502
e 348 586
e 348 615
e 348 726
e 348 856
e 348 866
e 348 892
e 349 577
e 349 803
e 349 871
e 350 431
e 351 375
e 351 550
e 351 698
e 351 699
e 351 707
e 351 765
e 351 804
e 351 820
e 353 650
e 353 692
e 354 622
e 354 837
e 355 367
e 355 412
e 355 421
e 355 454
e 355 567
e 355 630
e 355 714
e 355 718
e 355 854
e 356 434
e 356 485
e 356 493
e 356 495
e 356 544
e 356 741
e 356 828
e 356 856
e 357 823
e 357 886
e 358 540
e 358 584
e 358 594
e 358 641
e 358 713
e 358 791
e 358 865
e 359 623
e 359 763
e 360 686
e 361 433
e 361 780
e 362 431
e 362 678
e 362 690
e 363 532
e 363 619
e 363 766
e 363 840
e 363 842
e 364 542
e 364 683
e 365 664
e 366 400
e 366 415
e 366 514
e 367 405
e 368 409
e 368 503
e 368 554
e 368 563
e 368 571
e 368 574
e 368 632
e 368 656
e 368 717
e 368 736
e 369 557
e 369 665
e 370 496
e 370 664
e 371 395
e 371 523
e 371 700
e 371 828
e 372 431
e 372 470
e 373 737
e 373 814
e 375 740
e 375 788
e 376 633
e 377 514
e 377 704
e 378 427
e 379 484
e 379 737
e 380 382
e 380 492
e 381 417
e 381 446
e 381 524
e 381 718
e 382 553
e 382 572
e 382 684
e 383 405
e 383 668
e 384 577
e 384 643
e 385 484
e 385 627
e 385 737
e 386 531
e 386 780
e 387 427
e 388 462
e 388 489
e 388 717
e 388 724
e 388 731
e 388 762
e 388 769
e 388 815
e 389 622
e 390 818
e 391 538
e 391 668
e 392 509
e 393 577
e 393 633
e 394 579
e 394 668
e 395 542
e 395 739
e 396 647
e 396 788
e 396 862
e 397 405
e 397 668
e 398 478
e 399 803
e 400 424
e 400 586
e 400 717
e 400 799
e 400 824
e 401 579
e 401 665
e 402 557
e 402 668
e 402 837
e 403 491
e 403 882
e 404 455
e 404 560
e 404 807
e 405 610
e 405 712
e 405 729
e 405 787
e 405 875
e 405 898
e 406 459
e 406 673
e 406 755
e 406 790
e 406 868
e 407 432
e 407 461
e 408 455
e 408 677
e 409 438
e 410 430
e 410 560
e 411 662
e 411 725
e 412 882
e 413 444
e 413 473
e 413 494
e 413 497
e 413 555
e 413 593
e 413 735
e 413 840
e 414 509
e 414 606
e 415 561
e 415 666
e 415 669
e 415 674
e 415 700
e 415 777
e 416 488
e 416 526
e 416 545
e 416 613
e 416 651
e 417 780
e 417 843
e 418 557
e 418 829
e 418 858
e 419 678
e 419 705
e 420 528
e 420 705
e 420 800
e 421 818
e 422 507
e 423 725
e 425 852
e 426 497
e 426 508
e 426 519
e 426 585
e 426 766
e 426 832
e 426 879
e 427 437
e 427 487
e 427 517
e 427 612
e 427 693
e 427 702
e 427 784
e 427 797
e 429 531
e 429 793
e 430 466
e 430 582
e 430 588
e 430 599
e 430 663
e 430 820
e 430 874
e 431 443
e 431 457
e 431 628
e 431 667
e 431 789
e 432 452
e 432 482
e 432 554
e 432 566
e 432 631
e 432 701
e 432 771
e 432 855
e 433 439
e 433 614
e 433 623
e 433 637
e 433 805
e 434 800
e 435 622
e 438 457
e 438 598
e 438 607
e 438 634
e 438 744
e 438 748
e 438 792
e 439 531
e 439 547
e 440 542
e 441 491
e 441 621
e 442 448
e 442 481
e 442 552
e 442 559
e 442 624
e 442 630
e 442 657
e 442 671
e 442 785
e 442 896
e 443 732
e 443 818
e 444 679
e 444 788
e 445 478
e 445 542
e 445 825
e 446 818
e 447 683
e 448 704
e 449 551
e 449 882
e 450 471
e 450 517
e 450 540
e 450 546
e 450 591
e 450 610
e 450 719
e 450 878
e 451 725
e 451 849
e 452 670
e 452 779
e 453 678
e 454 895
e 455 518
e 455 611
e 455 661
e 455 711
e 455 754
e 455 877
e 456 622
e 457 704
e 458 528
e 458 788
e 459 818
e 460 670
e 460 798
e 461 541
e 461 595
e 461 688
e 461 772
e 461 773
e 461 782
e 461 842
e 464 843
e 464 895
e 465 507
e 465 618
e 466 528
e 466 739
e 467 780
e 468 793
e 468 823
e 469 627
e 470 477
e 470 479
e 470 546
e 470 585
e 470 790
e 471 650
e 472 534
e 472 689
e 472 703
e 472 757
e 472 781
e 472 810
e 472 875
e 472 896
e 473 758
e 474 478
e 474 692
e 474 715
e 475 577
e 475 679
e 476 603
e 476 611
e 476 654
e 476 682
e 476 716
e 476 786
e 476 828
e 476 845
e 476 859
e 477 621
e 477 779
e 478 550
e 478 625
e 478 724
e 478 747
e 478 877
e 479 690
e 480 793
e 481 800
e 483 556
e 483 809
e 484 607
e 484 721
e 484 811
e 484 860
e 484 876
e 484 897
e 485 560
e 485 829
e 486 692
e 486 725
e 487 643
e 488 778
e 490 779
e 491 499
e 491 581
e 491 708
e 491 735
e 491 888
e 492 513
e 492 702
e 492 772
e 492 802
e 492 900
e 493 621
e 495 547
e 495 606
e 496 590
e 496 639
e 496 673
e 496 771
e 496 808
e 497 803
e 498 809
e 499 589
e 499 758
e 500 715
e 500 758
e 501 862
e 502 778
e 503 814
e 504 686
e 504 793
e 505 538
e 505 665
e 506 758
e 507 558
e 507 713
e 507 830
e 507 859
e 508 809
e 509 544
e 509 559
e 509 570
e 509 578
e 509 592
e 509 695
e 509 710
e 510 528
e 510 692
e 511 725
e 511 801
e 512 732
e 512 739
e 514 765
e 514 813
e 514 827
e 514 884
e 515 589
e 516 622
e 516 829
e 518 825
e 519 589
e 519 809
e 520 633
e 521 525
e 521 818
e 522 837
e 524 551
e 524 800
e 525 567
e 525 669
e 525 713
e 525 751
e 525 804
e 525 810
e 525 838
e 526 647
e 526 686
e 527 793
e 527 807
e 528 570
e 528 699
e 528 774
e 529 562
e 529 690
e 530 665
e 530 677
e 530 837
e 531 578
e 531 786
e 531 826
e 531 892
e 532 823
e 533 622
e 533 818
e 533 825
e 534 538
e 535 547
e 535 678
e 535 779
e 536 692
e 537 662
e 537 779
e 538 552
e 538 711
e 538 718
e 538 847
e 538 869
e 538 890
e 539 732
e 540 678
e 541 740
e 541 809
e 542 666
e 542 812
e 542 847
e 543 547
e 543 551
e 547 767
e 547 888
e 548 627
e 549 829
e 551 624
e 551 776
e 551 785
e 551 805
e 553 643
e 555 633
e 555 852
e 556 588
e 556 680
e 556 761
e 556 766
e 556 833
e 557 630
e 557 639
e 557 754
e 557 873
e 558 683
e 558 793
e 559 843
e 560 605
e 560 653
e 560 660
e 560 830
e 560 870
e 562 642
e 562 648
e 562 689
e 562 789
e 562 889
e 564 739
e 565 577
e 566 650
e 566 750
e 567 704
e 568 829
e 569 668
e 571 683
e 573 861
e 576 690
e 576 809
e 577 582
e 577 649
e 577 842
e 578 690
e 579 703
e 579 768
e 579 816
e 583 692
e 584 725
e 585 705
e 587 670
e 587 692
e 588 679
e 589 770
e 589 874
e 590 664
e 590 778
e 591 618
e 591 725
e 593 679
e 593 779
e 595 617
e 595 803
e 596 825
e 598 818
e 599 692
e 599 740
e 600 617
e 600 809
e 600 871
e 601 627
e 601 829
e 602 618
e 602 650
e 603 807
e 604 622
e 604 683
e 604 704
e 605 686
e 606 675
e 606 763
e 606 767
e 608 683
e 608 818
e 609 778
e 609 849
e 609 886
e 610 665
e 612 662
e 612 750
e 614 705
e 616 750
e 617 652
e 617 720
e 617 820
e 617 880
e 618 659
e 618 672
e 618 719
e 618 819
e 618 832
e 618 884
e 620 750
e 620 801
e 621 730
e 621 899
e 622 697
e 622 795
e 623 843
e 624 780
e 625 740
e 626 871
e 627 722
e 627 808
e 627 821
e 627 867
e 628 814
e 628 858
e 629 798
e 631 861
e 633 652
e 633 724
e 633 770
e 633 874
e 634 739
e 635 861
e 636 677
e 636 728
e 637 800
e 638 882
e 643 743
e 643 782
e 643 806
e 643 848
e 643 850
e 644 670
e 644 750
e 644 814
e 645 814
e 645 871
e 646 650
e 647 696
e 647 736
e 647 804
e 647 827
e 647 892
e 648 665
e 649 692
e 649 788
e 650 791
e 651 683
e 651 807
e 654 686
e 654 829
e 655 677
e 655 858
e 659 678
e 660 807
e 660 849
e 661 739
e 661 829
e 662 676
e 662 688
e 662 694
e 662 784
e 662 841
e 663 715
e 664 706
e 664 748
e 664 795
e 664 821
e 664 857
e 665 712
e 665 773
e 665 816
e 666 829
e 668 688
e 668 889
e 670 672
e 670 676
e 670 760
e 670 883
e 671 895
e 673 814
e 674 732
e 675 705
e 675 843
e 676 849
e 677 714
e 677 831
e 677 896
e 678 730
e 678 868
e 678 879
e 679 685
e 679 709
e 679 815
e 681 843
e 682 788
e 683 726
e 683 877
e 684 895
e 686 695
e 686 763
e 686 853
e 687 715
e 687 780
e 690 875
e 691 800
e 692 827
e 693 801
e 693 837
e 697 858
e 697 886
e 698 725
e 704 727
e 704 755
e 704 757
e 704 881
e 705 710
e 705 776
e 705 885
e 706 823
e 706 849
e 709 740
e 710 715
e 715 764
e 715 769
e 716 852
e 722 818
e 723 793
e 728 729
e 728 768
e 728 869
e 728 898
e 731 882
e 732 736
e 732 746
e 732 749
e 732 753
e 732 755
e 732 756
e 732 811
e 733 895
e 734 809
e 734 823
e 737 795
e 737 831
e 737 839
e 739 775
e 739 844
e 740 848
e 740 891
e 741 862
e 742 798
e 742 861
e 743 871
e 745 807
e 745 862
e 750 899
e 752 800
e 753 861
e 756 886
e 758 822
e 759 837
e 761 852
e 762 861
e 767 843
e 773 801
e 774 780
e 775 788
e 778 794
e 778 851
e 778 860
e 778 876
e 780 853
e 780 885
e 781 882
e 788 870
e 788 880
e 792 886
e 793 799
e 794 809
e 798 834
e 800 863
e 802 871
e 803 817
e 803 833
e 803 851
e 803 887
e 807 812
e 807 845
e 808 886
e 812 862
e 814 835
e 817 823
e 817 837
e 821 858
e 823 897
e 825 864
e 826 829
e 826 862
e 829 831
e 834 858
e 835 861
e 837 869
e 839 886
e 843 863
e 855 871
e 858 876
e 872 895
e 886 894
e 893 895
